Please solve the following SAT Problem encoded in DIMACS format, provide line of thoughts, write your final answer as a single solution at the end of response with header 'answer: ' : 
p cnf 10 80
-10 1 -9 0
10 8 9 0
-8 -9 7 0
-8 -4 7 0
9 2 -4 0
-8 1 3 0
7 1 2 0
7 -8 -3 0
7 6 2 0
-8 6 2 0
-3 7 -9 0
10 -8 -9 0
7 -4 6 0
-8 1 -2 0
2 -8 1 0
7 -2 5 0
1 -4 6 0
6 7 2 0
6 -7 -4 0
-4 -7 6 0
-8 7 -9 0
1 6 7 0
1 2 -4 0
1 8 6 0
4 2 6 0
-8 -3 -4 0
7 -3 -4 0
5 7 -8 0
-8 -3 6 0
-3 1 5 0
8 -10 2 0
-9 10 8 0
5 -10 8 0
-1 -7 -9 0
5 7 -2 0
2 6 -9 0
2 -8 -6 0
-3 -9 5 0
-9 10 -8 0
2 -5 -4 0
-5 1 6 0
10 5 6 0
1 -9 6 0
7 10 -3 0
7 -10 -1 0
-9 -8 10 0
10 -4 1 0
10 -7 -3 0
3 6 -8 0
2 -4 10 0
1 7 -3 0
7 -8 -3 0
-4 6 -5 0
6 -9 5 0
7 -9 5 0
1 8 7 0
5 -10 1 0
6 -9 -4 0
6 -1 7 0
-8 10 3 0
5 10 9 0
6 3 10 0
1 7 5 0
-10 5 4 0
-3 -9 5 0
2 -3 -8 0
-4 -3 9 0
6 -8 1 0
-9 10 6 0
2 -8 7 0
-10 6 -8 0
7 4 1 0
-9 10 7 0
5 -3 -8 0
-3 7 2 0
-5 -3 7 0
-3 7 -10 0
-6 10 7 0
1 -9 7 0
1 10 6 0

